1 3 100 61626.45
1 3 200 60938.41
1 3 300 60075.91
2 3 100 70891.57
2 3 200 72739.08
2 3 300 75056.65
3 3 100 70941.55
3 3 200 76921.95
3 3 300 74452.12
4 3 100 69504.19
4 3 200 71168.29
4 3 300 71517.94
5 3 100 65980.87
5 3 200 67759.49
5 3 300 67662.67
